letting x be 5
letting y be 5

letting treecount be 6

letting col_sums be [1,1,1,2,1]
letting row_sums be [-1,1,1,1,2]

letting trees be
[
    [0,0,0,0,1],
    [2,0,0,0,0],
    [0,0,0,0,3],
    [0,0,4,0,0],
    [5,0,0,6,0]
]